results/res_prop_muc/res_Cimatti_mathsat_cores/QF_IDL/cache_neg.1step.smt.smt2.res
unsat
( c18
  c52
  c54
  c58
  c60
  c63
  c66
  c68 )
